33D32945 STP File, STP Format Version 1.0

SECTION Comments
Name "estein1_7"
Problem "Euclidean Steiner Tree Problem"
Remark "Generated with STPGenerator. 2 dimensions."
END

SECTION Graph
Nodes 12
END

SECTION Coordinates
DD 1 0.03 0.5
DD 2 0.2 0.6
DD 3 0.37 0.5
DD 4 0.37 0.3
DD 5 0.2 0
DD 6 0.03 0.3
DD 7 0.53 0.5
DD 8 0.7 0.6
DD 9 0.87 0.5
DD 10 0.87 0.3
DD 11 0.7 0.2
DD 12 0.53 0.3
END

